O  H  C                                 
   1.00000000000000     
    16.3299316185545003   -8.1649658092772608   -8.1649658092772608
     0.0000000000000000   14.1421356237308995  -14.1421356237308995
    11.5470053837925004   11.5470053837925004   11.5470053837925004
   O    H    C 
     1     6     2
Selective dynamics
Direct
  0.4156316781734191  0.5364657415150944  0.6313630426016132   T   T   T
  0.3551530786827897  0.4572547896898129  0.6110264053437575   T   T   T
  0.3579727232003833  0.4796339392040210  0.6979782220170847   T   T   T
  0.4272261613385808  0.4363494221474298  0.6604508890352463   T   T   T
  0.5011139403578113  0.5311900467783843  0.6918930214143941   T   T   T
  0.4306023829985222  0.5733668281020456  0.7283230449749567   T   T   T
  0.4765306907954283  0.6121187673041533  0.6615283371772946   T   T   T
  0.3879024448317736  0.4743895009528956  0.6516363743592137   T   T   T
  0.4579895081436618  0.5642447232088585  0.6810216197098384   T   T   T
 
  0.00000000E+00  0.00000000E+00  0.00000000E+00
  0.00000000E+00  0.00000000E+00  0.00000000E+00
  0.00000000E+00  0.00000000E+00  0.00000000E+00
  0.00000000E+00  0.00000000E+00  0.00000000E+00
  0.00000000E+00  0.00000000E+00  0.00000000E+00
  0.00000000E+00  0.00000000E+00  0.00000000E+00
  0.00000000E+00  0.00000000E+00  0.00000000E+00
  0.00000000E+00  0.00000000E+00  0.00000000E+00
  0.00000000E+00  0.00000000E+00  0.00000000E+00
