O  H  C                                 
   1.00000000000000     
    16.3299316185545003   -8.1649658092772608   -8.1649658092772608
     0.0000000000000000   14.1421356237308995  -14.1421356237308995
    11.5470053837925004   11.5470053837925004   11.5470053837925004
   O    H    C 
     1     6     2
Selective dynamics
Direct
  0.4156316781734200  0.5364657415150961  0.6313630426016135   T   T   T
  0.3551530786827866  0.4572547896898139  0.6110264053437541   T   T   T
  0.3579727232003820  0.4796339392040220  0.6979782220170859   T   T   T
  0.4272261613385799  0.4363494221474284  0.6604508890352455   T   T   T
  0.5011139403578094  0.5311900467783823  0.6918930214143925   T   T   T
  0.4306023829985233  0.5733668281020479  0.7283230449749571   T   T   T
  0.4765306907954265  0.6121187673041558  0.6615283371772949   T   T   T
  0.3879024448317758  0.4743895009528987  0.6516363743592107   T   T   T
  0.4579895081436594  0.5642447232088572  0.6810216197098382   T   T   T
 
  0.00000000E+00  0.00000000E+00  0.00000000E+00
  0.00000000E+00  0.00000000E+00  0.00000000E+00
  0.00000000E+00  0.00000000E+00  0.00000000E+00
  0.00000000E+00  0.00000000E+00  0.00000000E+00
  0.00000000E+00  0.00000000E+00  0.00000000E+00
  0.00000000E+00  0.00000000E+00  0.00000000E+00
  0.00000000E+00  0.00000000E+00  0.00000000E+00
  0.00000000E+00  0.00000000E+00  0.00000000E+00
  0.00000000E+00  0.00000000E+00  0.00000000E+00
