O  H  C                                 
   1.00000000000000     
    16.3299316185545003   -8.1649658092772608   -8.1649658092772608
     0.0000000000000000   14.1421356237308995  -14.1421356237308995
    11.5470053837925004   11.5470053837925004   11.5470053837925004
   O    H    C 
     1     8     3
Selective dynamics
Direct
  0.4193750518631374  0.5380066253826179  0.6347043378986602   T   T   T
  0.3560778546887320  0.4630632021139008  0.6072583927161670   T   T   T
  0.3564735402487032  0.4800999326916860  0.6954630384477811   T   T   T
  0.4251521649386868  0.4360235325558676  0.6579539771754710   T   T   T
  0.4977382423019505  0.5211085422683237  0.7010523022429689   T   T   T
  0.4298248481045268  0.5692759942213541  0.7333796627379691   T   T   T
  0.5273233331975637  0.6429196475207257  0.7083029848379386   T   T   T
  0.4597524426997942  0.6631758286311495  0.6537417629191183   T   T   T
  0.5284961503709805  0.6150653948811750  0.6235888699320070   T   T   T
  0.3879170914271439  0.4762888377622876  0.6499919140093124   T   T   T
  0.4608486393396282  0.5605498245038739  0.6881667879394087   T   T   T
  0.4961235229386724  0.6241678790456134  0.6670678565444054   T   T   T
 
  0.00000000E+00  0.00000000E+00  0.00000000E+00
  0.00000000E+00  0.00000000E+00  0.00000000E+00
  0.00000000E+00  0.00000000E+00  0.00000000E+00
  0.00000000E+00  0.00000000E+00  0.00000000E+00
  0.00000000E+00  0.00000000E+00  0.00000000E+00
  0.00000000E+00  0.00000000E+00  0.00000000E+00
  0.00000000E+00  0.00000000E+00  0.00000000E+00
  0.00000000E+00  0.00000000E+00  0.00000000E+00
  0.00000000E+00  0.00000000E+00  0.00000000E+00
  0.00000000E+00  0.00000000E+00  0.00000000E+00
  0.00000000E+00  0.00000000E+00  0.00000000E+00
  0.00000000E+00  0.00000000E+00  0.00000000E+00
