O  C  H                                 
   1.00000000000000     
    16.3299316185545003   -8.1649658092772608   -8.1649658092772608
     0.0000000000000000   14.1421356237308995  -14.1421356237308995
    11.5470053837925004   11.5470053837925004   11.5470053837925004
   O    C    H 
     1     3     6
Selective dynamics
Direct
  0.3970402837584928  0.5659413021989579  0.5683525501964724   T   T   T
  0.4132615774266384  0.5429060872527955  0.6227794822017003   T   T   T
  0.3859319290827941  0.4768715342074117  0.6477627415776936   T   T   T
  0.4619516638775707  0.5787887178017357  0.6683630606639710   T   T   T
  0.4752957264580715  0.6276245673169356  0.6473780503501700   T   T   T
  0.3530111607481743  0.4544585298788135  0.6101202642680406   T   T   T
  0.3579965082069236  0.4845008433738087  0.6946464617418471   T   T   T
  0.4271792893444228  0.4423064465882618  0.6595993934451130   T   T   T
  0.5075155055748723  0.5483729739760719  0.6744848180047498   T   T   T
  0.4404984588862177  0.5850578369993329  0.7186931983112572   T   T   T
 
  0.00000000E+00  0.00000000E+00  0.00000000E+00
  0.00000000E+00  0.00000000E+00  0.00000000E+00
  0.00000000E+00  0.00000000E+00  0.00000000E+00
  0.00000000E+00  0.00000000E+00  0.00000000E+00
  0.00000000E+00  0.00000000E+00  0.00000000E+00
  0.00000000E+00  0.00000000E+00  0.00000000E+00
  0.00000000E+00  0.00000000E+00  0.00000000E+00
  0.00000000E+00  0.00000000E+00  0.00000000E+00
  0.00000000E+00  0.00000000E+00  0.00000000E+00
  0.00000000E+00  0.00000000E+00  0.00000000E+00
