O  H                                    
   1.00000000000000     
    16.3299316185545003   -8.1649658092772608   -8.1649658092772608
     0.0000000000000000   14.1421356237308995  -14.1421356237308995
    11.5470053837925004   11.5470053837925004   11.5470053837925004
   O    H 
     1     2
Selective dynamics
Direct
  0.3973839700101749  0.5618387349138558  0.5603689020187659   T   T   T
  0.3740041086127732  0.5461549044661282  0.6000412426183033   T   T   T
  0.3874356310415195  0.6094192159613030  0.5584320298610450   T   T   T
 
  0.00000000E+00  0.00000000E+00  0.00000000E+00
  0.00000000E+00  0.00000000E+00  0.00000000E+00
  0.00000000E+00  0.00000000E+00  0.00000000E+00
