C  H                                    
   1.00000000000000     
    16.3299316185545003   -8.1649658092772608   -8.1649658092772608
     0.0000000000000000   14.1421356237308995  -14.1421356237308995
    11.5470053837925004   11.5470053837925004   11.5470053837925004
   C    H 
     2     6
Selective dynamics
Direct
  0.3499890358337206  0.5533448108018658  0.5133073924690114   T   T   T
  0.4090496676967971  0.5514512626428063  0.5617139803494502   T   T   T
  0.3533459584040448  0.5963472889247339  0.4791498100832265   T   T   T
  0.3478406616810817  0.5078955714005575  0.4823549665897326   T   T   T
  0.4117863897065854  0.5973567723203638  0.5919364378255092   T   T   T
  0.4568802088483644  0.5465522666841999  0.5349507372424985   T   T   T
  0.3020926553598421  0.5572644633827334  0.5401093006081981   T   T   T
  0.4052154956221347  0.5090435157723828  0.5965553909106258   T   T   T
 
  0.00000000E+00  0.00000000E+00  0.00000000E+00
  0.00000000E+00  0.00000000E+00  0.00000000E+00
  0.00000000E+00  0.00000000E+00  0.00000000E+00
  0.00000000E+00  0.00000000E+00  0.00000000E+00
  0.00000000E+00  0.00000000E+00  0.00000000E+00
  0.00000000E+00  0.00000000E+00  0.00000000E+00
  0.00000000E+00  0.00000000E+00  0.00000000E+00
  0.00000000E+00  0.00000000E+00  0.00000000E+00
