C  H                                    
   1.00000000000000     
    16.3299316185545003   -8.1649658092772608   -8.1649658092772608
     0.0000000000000000   14.1421356237308995  -14.1421356237308995
    11.5470053837925004   11.5470053837925004   11.5470053837925004
   C    H 
     2     6
Selective dynamics
Direct
  0.3499683380692887  0.5533530597113310  0.5133333116738517   T   T   T
  0.4090610439121902  0.5514378034846160  0.5616991114796919   T   T   T
  0.3533371840118931  0.5963576212372061  0.4791726326271643   T   T   T
  0.3478919081858930  0.5079477426581253  0.4822957466760711   T   T   T
  0.4118280756383830  0.5973638439775669  0.5919100860569223   T   T   T
  0.4568561571497882  0.5464995245166748  0.5349136305404649   T   T   T
  0.3020697877709208  0.5571902361308894  0.5401175697332106   T   T   T
  0.4051875784142207  0.5091061202132248  0.5966359272908768   T   T   T
 
  0.00000000E+00  0.00000000E+00  0.00000000E+00
  0.00000000E+00  0.00000000E+00  0.00000000E+00
  0.00000000E+00  0.00000000E+00  0.00000000E+00
  0.00000000E+00  0.00000000E+00  0.00000000E+00
  0.00000000E+00  0.00000000E+00  0.00000000E+00
  0.00000000E+00  0.00000000E+00  0.00000000E+00
  0.00000000E+00  0.00000000E+00  0.00000000E+00
  0.00000000E+00  0.00000000E+00  0.00000000E+00
