 N  H 
 1.0000000000000000
    21.6276620000000008    0.0000000000000000    0.0000000000000000
     0.0000000000000000   21.4095960000000005    0.0000000000000000
     0.0000000000000000    0.0000000000000000   20.3882970000000014
   1   3
Cartesian
 10.8138310000000004 10.4698650000000004 10.3882969999999997
 10.8138310000000004 11.4095960000000005 10.0000000000000000
 11.6276620000000008 10.0000000000000000 10.0000000000000000
 10.0000000000000000 10.0000000000000000 10.0000000000000000
