INCAR file from C:\Users\GeunHo\Desktop\Batch\11-22\C2H6.xsd. Created by Geun Ho Gu on 22-Nov-2015.
NWRITE = 1
LWAVE =  .FALSE.  ! write WAVECAR?
LCHARG = .FALSE.  ! write CHGCAR?
LVTOT =  .FALSE.  ! write LOCPOT?

LVDW = .TRUE.     ! DFT-D method activated
VDW_VERSION = 3   ! DFT-D3 activated


Electronic relaxation
ENCUT = 400       ! Energy cutoff in eV
# IALGO  = 48     ! 8: CG, 48: DIIS algorithm for electrons
ALGO = Fast
ISMEAR = 1        ! 0: Gaussian, electron smearing
VOSKOWN = 1       ! Default for PBE, RPBE
SIGMA  = 0.01      ! If gas phase, set to 0.01
PREC   = med     
LREAL  = auto
ROPT   =  2e-4  2e-4  
ISTART = 0
NELM   = 400
NELMDL = -10
EDIFF  = 1e-6  ! This and EDIFFG are the tolerance parameters
ISYM = 0 
ISPIN  = 1     ! polarization? y

Ionic relaxation
NSW    = 200   ! # of steps in optimization (default 0!)
ISIF   = 2     ! 0: relax ions, 1,2:relax ions,calc stresses, 3:relax ion+cell
IBRION = 1     ! 1: quasi-NR, 2:CG algorithm for ions
NFREE  = 2      ! number of DIIS vectors to save
POTIM  = 0.5  ! reduce trial step in optimization
EDIFFG = -0.01 ! For high accuracy, use -0.01 or -0.02

Parallel
NPAR = 1  
LPLANE = .TRUE. 
