H                                       
   1.00000000000000     
    16.3299316185545003   -8.1649658092772608   -8.1649658092772608
     0.0000000000000000   14.1421356237308995  -14.1421356237308995
    11.5470053837925004   11.5470053837925004   11.5470053837925004
   H 
     2
Selective dynamics
Direct
  0.4155014247489245  0.5590868432629947  0.6027335973496628   T   T   T
  0.4106535767285994  0.5218538278684490  0.6027827800427223   T   T   T
 
  0.00000000E+00  0.00000000E+00  0.00000000E+00
  0.00000000E+00  0.00000000E+00  0.00000000E+00
