C  H                                    
   1.00000000000000     
    16.3299316185545003   -8.1649658092772608   -8.1649658092772608
     0.0000000000000000   14.1421356237308995  -14.1421356237308995
    11.5470053837925004   11.5470053837925004   11.5470053837925004
   C    H 
     1     4
Selective dynamics
Direct
  0.3500452387017295  0.5480923039576860  0.5197406151647803   T   T   T
  0.3413459219912025  0.6022417704772139  0.5204651279495111   T   T   T
  0.3923986234558927  0.5368974228133857  0.4867234020517273   T   T   T
  0.3050826900096359  0.5226626281731465  0.5012788550821171   T   T   T
  0.3613747351883568  0.5305665677050332  0.5704731273277229   T   T   T
 
  0.00000000E+00  0.00000000E+00  0.00000000E+00
  0.00000000E+00  0.00000000E+00  0.00000000E+00
  0.00000000E+00  0.00000000E+00  0.00000000E+00
  0.00000000E+00  0.00000000E+00  0.00000000E+00
  0.00000000E+00  0.00000000E+00  0.00000000E+00
