 C H                                    
    1.000000000000000     
    20.0000000000000000    0.0000000000000000    0.0000000000000000
     0.0000000000000000   20.0000000000000000    0.0000000000000000
     0.0000000000000000    0.0000000000000000   20.0000000000000000
   C    H 
     1     4
Direct
  0.0000008885293396 -0.0000004198638150  0.0548766581209723
  0.0000012912310528 -0.0000006257496725  0.0000277763997769
  0.9483385604408739  0.9995512962989600  0.0732570759872804
  0.0262207473797983  0.9554881300223728  0.0732537028222282
  0.0254385124189352  0.0449616692921519  0.0732539984197440

  0.00000000E+00  0.00000000E+00  0.00000000E+00
  0.00000000E+00  0.00000000E+00  0.00000000E+00
  0.00000000E+00  0.00000000E+00  0.00000000E+00
  0.00000000E+00  0.00000000E+00  0.00000000E+00
  0.00000000E+00  0.00000000E+00  0.00000000E+00
