 C H                                    
1.0
+20.0000000000  +0.0000000000  +0.0000000000 
 +0.0000000000 +20.0000000000  +0.0000000000 
 +0.0000000000  +0.0000000000 +20.0000000000 
 1 4
Cartesian
 +0.0000000000  +0.0000000000  +1.0752648470 
 +0.0000000000  +0.0000000000  -0.0047351530 
 -1.0206920000  -0.0089070000  +1.4742848470 
 +0.5180600000  -0.8794910000  +1.4742848470 
 +0.5026320000  +0.8883990000  +1.4742848470 
