C  H                                    
   1.00000000000000     
    16.3299316185545003   -8.1649658092772608   -8.1649658092772608
     0.0000000000000000   14.1421356237308995  -14.1421356237308995
    11.5470053837925004   11.5470053837925004   11.5470053837925004
   C    H 
     1     4
Selective dynamics
Direct
  0.3500253299137334  0.5481002122073693  0.5197291853979942   T   T   T
  0.3413397803747044  0.6022435325720237  0.5204899872773476   T   T   T
  0.3923896928149151  0.5368995622413240  0.4867136802889314   T   T   T
  0.3050889901202355  0.5226326647802830  0.5012844497433541   T   T   T
  0.3614034161232285  0.5305847213254645  0.5704638248682377   T   T   T
 
  0.00000000E+00  0.00000000E+00  0.00000000E+00
  0.00000000E+00  0.00000000E+00  0.00000000E+00
  0.00000000E+00  0.00000000E+00  0.00000000E+00
  0.00000000E+00  0.00000000E+00  0.00000000E+00
  0.00000000E+00  0.00000000E+00  0.00000000E+00
