C  H                                    
   1.00000000000000     
    16.3299316185545003   -8.1649658092772608   -8.1649658092772608
     0.0000000000000000   14.1421356237308995  -14.1421356237308995
    11.5470053837925004   11.5470053837925004   11.5470053837925004
   C    H 
     5    12
Selective dynamics
Direct
  0.4198432308159866  0.5348418663141280  0.6277198954775698   T   T   T
  0.3857303991497881  0.4707253094028058  0.6514346357164070   T   T   T
  0.4666653528817776  0.5656167519349748  0.6797427719250757   T   T   T
  0.5020856141519734  0.6288685735191094  0.6551301705272473   T   T   T
  0.5518793520526617  0.6585615148639786  0.7060243110006799   T   T   T
  0.4485809927992755  0.5245057222148227  0.5817065388939276   T   T   T
  0.3520643544720387  0.4503030571648369  0.6130071457560722   T   T   T
  0.3558116434708165  0.4796381824870952  0.6968055711493101   T   T   T
  0.4228013241168625  0.4318142813804688  0.6635017067842909   T   T   T
  0.5045471803072662  0.5282144575789569  0.6946647530447319   T   T   T
  0.4381329110873595  0.5772779633855902  0.7256408525234364   T   T   T
  0.4639093319568386  0.6663835231019791  0.6418158002040304   T   T   T
  0.5281332418609332  0.6170501983435008  0.6079703180917017   T   T   T
  0.3816036188822748  0.5720755789008671  0.6135297956581164   T   T   T
  0.5534713115689408  0.6286476703950417  0.7522178516863112   T   T   T
  0.5386267732625711  0.7098865782550561  0.7205783426274219   T   T   T
  0.6031258409917681  0.6601081201418780  0.6861713265122292   T   T   T
 
  0.00000000E+00  0.00000000E+00  0.00000000E+00
  0.00000000E+00  0.00000000E+00  0.00000000E+00
  0.00000000E+00  0.00000000E+00  0.00000000E+00
  0.00000000E+00  0.00000000E+00  0.00000000E+00
  0.00000000E+00  0.00000000E+00  0.00000000E+00
  0.00000000E+00  0.00000000E+00  0.00000000E+00
  0.00000000E+00  0.00000000E+00  0.00000000E+00
  0.00000000E+00  0.00000000E+00  0.00000000E+00
  0.00000000E+00  0.00000000E+00  0.00000000E+00
  0.00000000E+00  0.00000000E+00  0.00000000E+00
  0.00000000E+00  0.00000000E+00  0.00000000E+00
  0.00000000E+00  0.00000000E+00  0.00000000E+00
  0.00000000E+00  0.00000000E+00  0.00000000E+00
  0.00000000E+00  0.00000000E+00  0.00000000E+00
  0.00000000E+00  0.00000000E+00  0.00000000E+00
  0.00000000E+00  0.00000000E+00  0.00000000E+00
  0.00000000E+00  0.00000000E+00  0.00000000E+00
