C  H                                    
   1.00000000000000     
    16.3299316185545003   -8.1649658092772608   -8.1649658092772608
     0.0000000000000000   14.1421356237308995  -14.1421356237308995
    11.5470053837925004   11.5470053837925004   11.5470053837925004
   C    H 
     3     8
Selective dynamics
Direct
  0.4178225154917428  0.5364846519872302  0.6293988463044968   T   T   T
  0.3859163187704340  0.4699944195397094  0.6494730024843136   T   T   T
  0.4602590209720319  0.5669917487081122  0.6851701518125282   T   T   T
  0.4489666583629841  0.5291706142926458  0.5844466602020972   T   T   T
  0.3547288727470175  0.4493004057516288  0.6091507566664660   T   T   T
  0.3539042885706749  0.4761252210022064  0.6938933444262290   T   T   T
  0.4242632992529778  0.4324586541909667  0.6619156628883189   T   T   T
  0.5024553520883330  0.5341018369948500  0.6982841174726104   T   T   T
  0.4303846426959836  0.5743866171633059  0.7308681965406265   T   T   T
  0.3783251605196654  0.5721058532027214  0.6147764384651850   T   T   T
  0.4810078101495776  0.6158385312864141  0.6706864373416153   T   T   T
 
  0.00000000E+00  0.00000000E+00  0.00000000E+00
  0.00000000E+00  0.00000000E+00  0.00000000E+00
  0.00000000E+00  0.00000000E+00  0.00000000E+00
  0.00000000E+00  0.00000000E+00  0.00000000E+00
  0.00000000E+00  0.00000000E+00  0.00000000E+00
  0.00000000E+00  0.00000000E+00  0.00000000E+00
  0.00000000E+00  0.00000000E+00  0.00000000E+00
  0.00000000E+00  0.00000000E+00  0.00000000E+00
  0.00000000E+00  0.00000000E+00  0.00000000E+00
  0.00000000E+00  0.00000000E+00  0.00000000E+00
  0.00000000E+00  0.00000000E+00  0.00000000E+00
