O  H                                    
   1.00000000000000     
    16.3299316185545003   -8.1649658092772608   -8.1649658092772608
     0.0000000000000000   14.1421356237308995  -14.1421356237308995
    11.5470053837925004   11.5470053837925004   11.5470053837925004
   O    H 
     1     2
Selective dynamics
Direct
  0.3973839700101744  0.5618387349138591  0.5603689020187628   T   T   T
  0.3740041086127714  0.5461549044661270  0.6000412426183014   T   T   T
  0.3874356310415218  0.6094192159613006  0.5584320298610428   T   T   T
 
  0.00000000E+00  0.00000000E+00  0.00000000E+00
  0.00000000E+00  0.00000000E+00  0.00000000E+00
  0.00000000E+00  0.00000000E+00  0.00000000E+00
