C  H                                    
   1.00000000000000     
    16.3299316185545003   -8.1649658092772608   -8.1649658092772608
     0.0000000000000000   14.1421356237308995  -14.1421356237308995
    11.5470053837925004   11.5470053837925004   11.5470053837925004
   C    H 
     2     4
Selective dynamics
Direct
  0.3557399301180482  0.5523271068523101  0.5440928527828248   T   T   T
  0.4014080563472930  0.5358248403083863  0.5897738950425691   T   T   T
  0.3464186193050978  0.6043558374180833  0.5302976927030087   T   T   T
  0.3257021645837241  0.5145750807957583  0.5184847211174528   T   T   T
  0.4314775997129203  0.5736374156584176  0.6152613493060031   T   T   T
  0.4106944691304761  0.4838273000373761  0.6037192852333035   T   T   T
 
  0.00000000E+00  0.00000000E+00  0.00000000E+00
  0.00000000E+00  0.00000000E+00  0.00000000E+00
  0.00000000E+00  0.00000000E+00  0.00000000E+00
  0.00000000E+00  0.00000000E+00  0.00000000E+00
  0.00000000E+00  0.00000000E+00  0.00000000E+00
  0.00000000E+00  0.00000000E+00  0.00000000E+00
