C  H                                    
   1.00000000000000     
    16.3299316185545003   -8.1649658092772608   -8.1649658092772608
     0.0000000000000000   14.1421356237308995  -14.1421356237308995
    11.5470053837925004   11.5470053837925004   11.5470053837925004
   C    H 
     4    10
Selective dynamics
Direct
  0.4187082491681622  0.5342770819589973  0.6291264054564465   T   T   T
  0.3836376455142769  0.4690944895524538  0.6480755467487072   T   T   T
  0.4616128038832699  0.5627696127473456  0.6857061486273111   T   T   T
  0.4978070265431640  0.6273582898816485  0.6668702633435331   T   T   T
  0.4504241644324125  0.5261044446827725  0.5846572190953268   T   T   T
  0.3516326080216672  0.4505002209740567  0.6073833520188359   T   T   T
  0.3518258436629935  0.4759477332051318  0.6925197091169082   T   T   T
  0.4201998099748607  0.4296430592790301  0.6599531602729343   T   T   T
  0.4984759072529883  0.5246993973991820  0.7012827946690834   T   T   T
  0.4295446632688780  0.5716141899949392  0.7297916977078174   T   T   T
  0.5281379228044969  0.6465423648325128  0.7085765555412280   T   T   T
  0.4620763791976401  0.6668168433851136  0.6527200571805167   T   T   T
  0.5314834004643672  0.6194845825658888  0.6240085118347665   T   T   T
  0.3812004299423464  0.5719624812642792  0.6141762568284719   T   T   T
 
  0.00000000E+00  0.00000000E+00  0.00000000E+00
  0.00000000E+00  0.00000000E+00  0.00000000E+00
  0.00000000E+00  0.00000000E+00  0.00000000E+00
  0.00000000E+00  0.00000000E+00  0.00000000E+00
  0.00000000E+00  0.00000000E+00  0.00000000E+00
  0.00000000E+00  0.00000000E+00  0.00000000E+00
  0.00000000E+00  0.00000000E+00  0.00000000E+00
  0.00000000E+00  0.00000000E+00  0.00000000E+00
  0.00000000E+00  0.00000000E+00  0.00000000E+00
  0.00000000E+00  0.00000000E+00  0.00000000E+00
  0.00000000E+00  0.00000000E+00  0.00000000E+00
  0.00000000E+00  0.00000000E+00  0.00000000E+00
  0.00000000E+00  0.00000000E+00  0.00000000E+00
  0.00000000E+00  0.00000000E+00  0.00000000E+00
