C  H                                    
   1.00000000000000     
    16.3299316185545003   -8.1649658092772608   -8.1649658092772608
     0.0000000000000000   14.1421356237308995  -14.1421356237308995
    11.5470053837925004   11.5470053837925004   11.5470053837925004
   C    H 
     4    10
Selective dynamics
Direct
  0.4187082491681657  0.5342770819590000  0.6291264054564445   T   T   T
  0.3836376455142793  0.4690944895524541  0.6480755467487068   T   T   T
  0.4616128038832684  0.5627696127473467  0.6857061486273079   T   T   T
  0.4978070265431656  0.6273582898816478  0.6668702633435337   T   T   T
  0.4504241644324113  0.5261044446827734  0.5846572190953244   T   T   T
  0.3516326080216642  0.4505002209740602  0.6073833520188378   T   T   T
  0.3518258436629949  0.4759477332051291  0.6925197091169111   T   T   T
  0.4201998099748579  0.4296430592790309  0.6599531602729332   T   T   T
  0.4984759072529901  0.5246993973991798  0.7012827946690868   T   T   T
  0.4295446632688786  0.5716141899949393  0.7297916977078187   T   T   T
  0.5281379228044950  0.6465423648325159  0.7085765555412276   T   T   T
  0.4620763791976424  0.6668168433851108  0.6527200571805144   T   T   T
  0.5314834004643660  0.6194845825658886  0.6240085118347686   T   T   T
  0.3812004299423497  0.5719624812642777  0.6141762568284705   T   T   T
 
  0.00000000E+00  0.00000000E+00  0.00000000E+00
  0.00000000E+00  0.00000000E+00  0.00000000E+00
  0.00000000E+00  0.00000000E+00  0.00000000E+00
  0.00000000E+00  0.00000000E+00  0.00000000E+00
  0.00000000E+00  0.00000000E+00  0.00000000E+00
  0.00000000E+00  0.00000000E+00  0.00000000E+00
  0.00000000E+00  0.00000000E+00  0.00000000E+00
  0.00000000E+00  0.00000000E+00  0.00000000E+00
  0.00000000E+00  0.00000000E+00  0.00000000E+00
  0.00000000E+00  0.00000000E+00  0.00000000E+00
  0.00000000E+00  0.00000000E+00  0.00000000E+00
  0.00000000E+00  0.00000000E+00  0.00000000E+00
  0.00000000E+00  0.00000000E+00  0.00000000E+00
  0.00000000E+00  0.00000000E+00  0.00000000E+00
