C  H                                    
   1.00000000000000     
    16.3299316185545003   -8.1649658092772608   -8.1649658092772608
     0.0000000000000000   14.1421356237308995  -14.1421356237308995
    11.5470053837925004   11.5470053837925004   11.5470053837925004
   C    H 
     5    12
Selective dynamics
Direct
  0.4198432308159852  0.5348418663141246  0.6277198954775685   T   T   T
  0.3857303991497858  0.4707253094028090  0.6514346357164058   T   T   T
  0.4666653528817761  0.5656167519349751  0.6797427719250777   T   T   T
  0.5020856141519729  0.6288685735191066  0.6551301705272508   T   T   T
  0.5518793520526586  0.6585615148639761  0.7060243110006823   T   T   T
  0.4485809927992790  0.5245057222148262  0.5817065388939255   T   T   T
  0.3520643544720414  0.4503030571648381  0.6130071457560717   T   T   T
  0.3558116434708154  0.4796381824870934  0.6968055711493122   T   T   T
  0.4228013241168611  0.4318142813804684  0.6635017067842881   T   T   T
  0.5045471803072630  0.5282144575789545  0.6946647530447336   T   T   T
  0.4381329110873580  0.5772779633855905  0.7256408525234335   T   T   T
  0.4639093319568417  0.6663835231019775  0.6418158002040286   T   T   T
  0.5281332418609352  0.6170501983434988  0.6079703180917022   T   T   T
  0.3816036188822736  0.5720755789008649  0.6135297956581169   T   T   T
  0.5534713115689414  0.6286476703950399  0.7522178516863107   T   T   T
  0.5386267732625711  0.7098865782550590  0.7205783426274195   T   T   T
  0.6031258409917655  0.6601081201418779  0.6861713265122305   T   T   T
 
  0.00000000E+00  0.00000000E+00  0.00000000E+00
  0.00000000E+00  0.00000000E+00  0.00000000E+00
  0.00000000E+00  0.00000000E+00  0.00000000E+00
  0.00000000E+00  0.00000000E+00  0.00000000E+00
  0.00000000E+00  0.00000000E+00  0.00000000E+00
  0.00000000E+00  0.00000000E+00  0.00000000E+00
  0.00000000E+00  0.00000000E+00  0.00000000E+00
  0.00000000E+00  0.00000000E+00  0.00000000E+00
  0.00000000E+00  0.00000000E+00  0.00000000E+00
  0.00000000E+00  0.00000000E+00  0.00000000E+00
  0.00000000E+00  0.00000000E+00  0.00000000E+00
  0.00000000E+00  0.00000000E+00  0.00000000E+00
  0.00000000E+00  0.00000000E+00  0.00000000E+00
  0.00000000E+00  0.00000000E+00  0.00000000E+00
  0.00000000E+00  0.00000000E+00  0.00000000E+00
  0.00000000E+00  0.00000000E+00  0.00000000E+00
  0.00000000E+00  0.00000000E+00  0.00000000E+00
