 H 
 1.0000000000000000
    20.0000000000000000    0.0000000000000000    0.0000000000000000
     0.0000000000000000   20.0000000000000000    0.0000000000000000
     0.0000000000000000    0.0000000000000000   20.7371659999999984
   2
Cartesian
 10.0000000000000000 10.0000000000000000 10.7371659999999984
 10.0000000000000000 10.0000000000000000 10.0000000000000000
