C  H                                    
   1.00000000000000     
    16.3299316185545003   -8.1649658092772608   -8.1649658092772608
     0.0000000000000000   14.1421356237308995  -14.1421356237308995
    11.5470053837925004   11.5470053837925004   11.5470053837925004
   C    H 
     5     8
Selective dynamics
Direct
  0.4187733125897211  0.5262709816644460  0.6337405955591748   T   T   T
  0.3836263562303515  0.4715475460879119  0.6509691512612363   T   T   T
  0.4688391930689235  0.5578676001658067  0.6755204367338834   T   T   T
  0.5042498327398022  0.6124056811268943  0.6578477488583729   T   T   T
  0.5562034523914718  0.6455362276107479  0.6999719672299776   T   T   T
  0.3464788700740584  0.4496391275137412  0.6176050539864804   T   T   T
  0.3911528937697284  0.4470391616619196  0.6992433695157345   T   T   T
  0.4778429597635778  0.5351152353463604  0.7246465262095114   T   T   T
  0.4947232925188700  0.6346851080710323  0.6086248419846072   T   T   T
  0.4098336714901123  0.5493973990162715  0.5848375157342502   T   T   T
  0.5623004493171990  0.6202569315824533  0.7484154536384722   T   T   T
  0.5434657872136057  0.6983304653327806  0.7096182769683779   T   T   T
  0.6051854010163851  0.6459999300984833  0.6745781097701169   T   T   T
 
  0.00000000E+00  0.00000000E+00  0.00000000E+00
  0.00000000E+00  0.00000000E+00  0.00000000E+00
  0.00000000E+00  0.00000000E+00  0.00000000E+00
  0.00000000E+00  0.00000000E+00  0.00000000E+00
  0.00000000E+00  0.00000000E+00  0.00000000E+00
  0.00000000E+00  0.00000000E+00  0.00000000E+00
  0.00000000E+00  0.00000000E+00  0.00000000E+00
  0.00000000E+00  0.00000000E+00  0.00000000E+00
  0.00000000E+00  0.00000000E+00  0.00000000E+00
  0.00000000E+00  0.00000000E+00  0.00000000E+00
  0.00000000E+00  0.00000000E+00  0.00000000E+00
  0.00000000E+00  0.00000000E+00  0.00000000E+00
  0.00000000E+00  0.00000000E+00  0.00000000E+00
