C  H                                    
   1.00000000000000     
    16.3299316185545003   -8.1649658092772608   -8.1649658092772608
     0.0000000000000000   14.1421356237308995  -14.1421356237308995
    11.5470053837925004   11.5470053837925004   11.5470053837925004
   C    H 
     5     8
Selective dynamics
Direct
  0.4187733125897227  0.5262709816644489  0.6337405955591752   T   T   T
  0.3836263562303531  0.4715475460879087  0.6509691512612348   T   T   T
  0.4688391930689267  0.5578676001658078  0.6755204367338814   T   T   T
  0.5042498327398036  0.6124056811268915  0.6578477488583735   T   T   T
  0.5562034523914735  0.6455362276107501  0.6999719672299749   T   T   T
  0.3464788700740587  0.4496391275137397  0.6176050539864806   T   T   T
  0.3911528937697303  0.4470391616619172  0.6992433695157322   T   T   T
  0.4778429597635783  0.5351152353463570  0.7246465262095136   T   T   T
  0.4947232925188672  0.6346851080710313  0.6086248419846104   T   T   T
  0.4098336714901097  0.5493973990162745  0.5848375157342497   T   T   T
  0.5623004493172005  0.6202569315824561  0.7484154536384701   T   T   T
  0.5434657872136089  0.6983304653327809  0.7096182769683769   T   T   T
  0.6051854010163860  0.6459999300984854  0.6745781097701155   T   T   T
 
  0.00000000E+00  0.00000000E+00  0.00000000E+00
  0.00000000E+00  0.00000000E+00  0.00000000E+00
  0.00000000E+00  0.00000000E+00  0.00000000E+00
  0.00000000E+00  0.00000000E+00  0.00000000E+00
  0.00000000E+00  0.00000000E+00  0.00000000E+00
  0.00000000E+00  0.00000000E+00  0.00000000E+00
  0.00000000E+00  0.00000000E+00  0.00000000E+00
  0.00000000E+00  0.00000000E+00  0.00000000E+00
  0.00000000E+00  0.00000000E+00  0.00000000E+00
  0.00000000E+00  0.00000000E+00  0.00000000E+00
  0.00000000E+00  0.00000000E+00  0.00000000E+00
  0.00000000E+00  0.00000000E+00  0.00000000E+00
  0.00000000E+00  0.00000000E+00  0.00000000E+00
