O  H  C                                 
   1.00000000000000     
    16.3299316185545003   -8.1649658092772608   -8.1649658092772608
     0.0000000000000000   14.1421356237308995  -14.1421356237308995
    11.5470053837925004   11.5470053837925004   11.5470053837925004
   O    H    C 
     1     8     3
Selective dynamics
Direct
  0.4193750518631347  0.5380066253826215  0.6347043378986612   T   T   T
  0.3560778546887349  0.4630632021139007  0.6072583927161688   T   T   T
  0.3564735402487003  0.4800999326916866  0.6954630384477838   T   T   T
  0.4251521649386873  0.4360235325558648  0.6579539771754739   T   T   T
  0.4977382423019492  0.5211085422683226  0.7010523022429709   T   T   T
  0.4298248481045235  0.5692759942213570  0.7333796627379670   T   T   T
  0.5273233331975646  0.6429196475207277  0.7083029848379354   T   T   T
  0.4597524426997950  0.6631758286311467  0.6537417629191182   T   T   T
  0.5284961503709837  0.6150653948811780  0.6235888699320071   T   T   T
  0.3879170914271413  0.4762888377622900  0.6499919140093127   T   T   T
  0.4608486393396305  0.5605498245038731  0.6881667879394087   T   T   T
  0.4961235229386745  0.6241678790456149  0.6670678565444064   T   T   T
 
  0.00000000E+00  0.00000000E+00  0.00000000E+00
  0.00000000E+00  0.00000000E+00  0.00000000E+00
  0.00000000E+00  0.00000000E+00  0.00000000E+00
  0.00000000E+00  0.00000000E+00  0.00000000E+00
  0.00000000E+00  0.00000000E+00  0.00000000E+00
  0.00000000E+00  0.00000000E+00  0.00000000E+00
  0.00000000E+00  0.00000000E+00  0.00000000E+00
  0.00000000E+00  0.00000000E+00  0.00000000E+00
  0.00000000E+00  0.00000000E+00  0.00000000E+00
  0.00000000E+00  0.00000000E+00  0.00000000E+00
  0.00000000E+00  0.00000000E+00  0.00000000E+00
  0.00000000E+00  0.00000000E+00  0.00000000E+00
