 N 
 1.0000000000000000
    20.0000000000000000    0.0000000000000000    0.0000000000000000
     0.0000000000000000   20.0000000000000000    0.0000000000000000
     0.0000000000000000    0.0000000000000000   21.1299799999999998
   2
Cartesian
 10.0000000000000000 10.0000000000000000 11.1299799999999998
 10.0000000000000000 10.0000000000000000 10.0000000000000000
