O  C  H                                 
   1.00000000000000     
    16.3299316185545003   -8.1649658092772608   -8.1649658092772608
     0.0000000000000000   14.1421356237308995  -14.1421356237308995
    11.5470053837925004   11.5470053837925004   11.5470053837925004
   O    C    H 
     1     3     6
Selective dynamics
Direct
  0.3970402837584954  0.5659413021989586  0.5683525501964742   T   T   T
  0.4132615774266411  0.5429060872527945  0.6227794822016975   T   T   T
  0.3859319290827931  0.4768715342074132  0.6477627415776906   T   T   T
  0.4619516638775684  0.5787887178017374  0.6683630606639706   T   T   T
  0.4752957264580681  0.6276245673169353  0.6473780503501735   T   T   T
  0.3530111607481773  0.4544585298788165  0.6101202642680374   T   T   T
  0.3579965082069236  0.4845008433738069  0.6946464617418486   T   T   T
  0.4271792893444247  0.4423064465882639  0.6595993934451151   T   T   T
  0.5075155055748731  0.5483729739760741  0.6744848180047525   T   T   T
  0.4404984588862211  0.5850578369993318  0.7186931983112600   T   T   T
 
  0.00000000E+00  0.00000000E+00  0.00000000E+00
  0.00000000E+00  0.00000000E+00  0.00000000E+00
  0.00000000E+00  0.00000000E+00  0.00000000E+00
  0.00000000E+00  0.00000000E+00  0.00000000E+00
  0.00000000E+00  0.00000000E+00  0.00000000E+00
  0.00000000E+00  0.00000000E+00  0.00000000E+00
  0.00000000E+00  0.00000000E+00  0.00000000E+00
  0.00000000E+00  0.00000000E+00  0.00000000E+00
  0.00000000E+00  0.00000000E+00  0.00000000E+00
  0.00000000E+00  0.00000000E+00  0.00000000E+00
