 H                                    
   1.00000000000000     
    20.0000000000000000    0.0000000000000000    0.0000000000000000
     0.0000000000000000   20.0000000000000000    0.0000000000000000
     0.0000000000000000    0.0000000000000000   20.0000000000000000
   2
Cartesian
  0.00000000E+00  0.00000000E+00  0.00000000E+00
  0                 0             0.74
