C  H                                    
   1.00000000000000     
    16.3299316185545003   -8.1649658092772608   -8.1649658092772608
     0.0000000000000000   14.1421356237308995  -14.1421356237308995
    11.5470053837925004   11.5470053837925004   11.5470053837925004
   C    H 
     3     8
Selective dynamics
Direct
  0.4178225154917424  0.5364846519872286  0.6293988463044982   T   T   T
  0.3859163187704372  0.4699944195397119  0.6494730024843113   T   T   T
  0.4602590209720305  0.5669917487081092  0.6851701518125271   T   T   T
  0.4489666583629849  0.5291706142926434  0.5844466602021002   T   T   T
  0.3547288727470160  0.4493004057516303  0.6091507566664690   T   T   T
  0.3539042885706771  0.4761252210022053  0.6938933444262301   T   T   T
  0.4242632992529783  0.4324586541909680  0.6619156628883188   T   T   T
  0.5024553520883318  0.5341018369948516  0.6982841174726101   T   T   T
  0.4303846426959870  0.5743866171633027  0.7308681965406267   T   T   T
  0.3783251605196634  0.5721058532027208  0.6147764384651823   T   T   T
  0.4810078101495754  0.6158385312864139  0.6706864373416188   T   T   T
 
  0.00000000E+00  0.00000000E+00  0.00000000E+00
  0.00000000E+00  0.00000000E+00  0.00000000E+00
  0.00000000E+00  0.00000000E+00  0.00000000E+00
  0.00000000E+00  0.00000000E+00  0.00000000E+00
  0.00000000E+00  0.00000000E+00  0.00000000E+00
  0.00000000E+00  0.00000000E+00  0.00000000E+00
  0.00000000E+00  0.00000000E+00  0.00000000E+00
  0.00000000E+00  0.00000000E+00  0.00000000E+00
  0.00000000E+00  0.00000000E+00  0.00000000E+00
  0.00000000E+00  0.00000000E+00  0.00000000E+00
  0.00000000E+00  0.00000000E+00  0.00000000E+00
