O  C  H                                 
   1.00000000000000     
    16.3299316185545003   -8.1649658092772608   -8.1649658092772608
     0.0000000000000000   14.1421356237308995  -14.1421356237308995
    11.5470053837925004   11.5470053837925004   11.5470053837925004
   O    C    H 
     1     4     8
Selective dynamics
Direct
  0.4202113131030814  0.5612267343800639  0.5610773545050165   T   T   T
  0.4140368672487682  0.5357671354380500  0.6276844971300264   T   T   T
  0.4149208853693054  0.6324420354073368  0.5673481588782749   T   T   T
  0.4501711459056139  0.6511046617896810  0.6334582291637147   T   T   T
  0.4548651993458108  0.5837245113453662  0.6715286386181845   T   T   T
  0.4325954660529803  0.4840522499829163  0.6274315021512606   T   T   T
  0.3607233967796404  0.5353880996778813  0.6431206430585661   T   T   T
  0.4380179652252991  0.6545611215968563  0.5226622079241707   T   T   T
  0.3615208753401831  0.6472602137629906  0.5687020575110893   T   T   T
  0.5001120859777899  0.6720301739824350  0.6242636134959199   T   T   T
  0.4213993700100360  0.6887169431246676  0.6613537206328033   T   T   T
  0.5070664683987971  0.5668378621487733  0.6746554904742723   T   T   T
  0.4351436305284651  0.5868523701866906  0.7227269139577999   T   T   T
 
  0.00000000E+00  0.00000000E+00  0.00000000E+00
  0.00000000E+00  0.00000000E+00  0.00000000E+00
  0.00000000E+00  0.00000000E+00  0.00000000E+00
  0.00000000E+00  0.00000000E+00  0.00000000E+00
  0.00000000E+00  0.00000000E+00  0.00000000E+00
  0.00000000E+00  0.00000000E+00  0.00000000E+00
  0.00000000E+00  0.00000000E+00  0.00000000E+00
  0.00000000E+00  0.00000000E+00  0.00000000E+00
  0.00000000E+00  0.00000000E+00  0.00000000E+00
  0.00000000E+00  0.00000000E+00  0.00000000E+00
  0.00000000E+00  0.00000000E+00  0.00000000E+00
  0.00000000E+00  0.00000000E+00  0.00000000E+00
  0.00000000E+00  0.00000000E+00  0.00000000E+00
