O  C  H                                 
   1.00000000000000     
    16.3299316185545003   -8.1649658092772608   -8.1649658092772608
     0.0000000000000000   14.1421356237308995  -14.1421356237308995
    11.5470053837925004   11.5470053837925004   11.5470053837925004
   O    C    H 
     1     4     8
Selective dynamics
Direct
  0.4202113131030796  0.5612267343800663  0.5610773545050184   T   T   T
  0.4140368672487716  0.5357671354380499  0.6276844971300281   T   T   T
  0.4149208853693048  0.6324420354073370  0.5673481588782738   T   T   T
  0.4501711459056151  0.6511046617896825  0.6334582291637162   T   T   T
  0.4548651993458089  0.5837245113453678  0.6715286386181873   T   T   T
  0.4325954660529773  0.4840522499829184  0.6274315021512610   T   T   T
  0.3607233967796420  0.5353880996778795  0.6431206430585631   T   T   T
  0.4380179652252975  0.6545611215968563  0.5226622079241694   T   T   T
  0.3615208753401834  0.6472602137629896  0.5687020575110900   T   T   T
  0.5001120859777932  0.6720301739824355  0.6242636134959175   T   T   T
  0.4213993700100334  0.6887169431246659  0.6613537206328020   T   T   T
  0.5070664683988005  0.5668378621487703  0.6746554904742713   T   T   T
  0.4351436305284616  0.5868523701866928  0.7227269139577972   T   T   T
 
  0.00000000E+00  0.00000000E+00  0.00000000E+00
  0.00000000E+00  0.00000000E+00  0.00000000E+00
  0.00000000E+00  0.00000000E+00  0.00000000E+00
  0.00000000E+00  0.00000000E+00  0.00000000E+00
  0.00000000E+00  0.00000000E+00  0.00000000E+00
  0.00000000E+00  0.00000000E+00  0.00000000E+00
  0.00000000E+00  0.00000000E+00  0.00000000E+00
  0.00000000E+00  0.00000000E+00  0.00000000E+00
  0.00000000E+00  0.00000000E+00  0.00000000E+00
  0.00000000E+00  0.00000000E+00  0.00000000E+00
  0.00000000E+00  0.00000000E+00  0.00000000E+00
  0.00000000E+00  0.00000000E+00  0.00000000E+00
  0.00000000E+00  0.00000000E+00  0.00000000E+00
