 C H                                    
    1.000000000000000     
    20.0000000000000000    0.0000000000000000    0.0000000000000000
     0.0000000000000000   20.0000000000000000    0.0000000000000000
     0.0000000000000000    0.0000000000000000   20.0000000000000000
   C    H 
     1     3
Direct
  0.0000077044256608  0.0000006297209146  0.0688698597300364
  0.9457433148857094  0.9995263760060771  0.0685832756857747
  0.0275346372217536  0.9532837893194125  0.0685931146557699
  0.0267130521668743  0.0471898806535966  0.0685951852284167

  0.00000000E+00  0.00000000E+00  0.00000000E+00
  0.00000000E+00  0.00000000E+00  0.00000000E+00
  0.00000000E+00  0.00000000E+00  0.00000000E+00
  0.00000000E+00  0.00000000E+00  0.00000000E+00
