 C H                                    
1.0
+20.0000000000  +0.0000000000  +0.0000000000 
 +0.0000000000 +20.0000000000  +0.0000000000 
 +0.0000000000  +0.0000000000 +20.0000000000 
C H
 1 3
Direct
 +0.0000008885  -0.0000004199  +0.0548766581 
 +0.9483385604  +0.9995512963  +0.0732570760 
 +0.0262207474  +0.9554881300  +0.0732537028 
 +0.0254385124  +0.0449616693  +0.0732539984 
