K-Point Grid. Created by Vassili Vorotnikov on 22-Nov-2015.
0
Monkhorst-Pack
1 1 1
0. 0. 0.
