C  H                                    
   1.00000000000000     
    16.3299316185545003   -8.1649658092772608   -8.1649658092772608
     0.0000000000000000   14.1421356237308995  -14.1421356237308995
    11.5470053837925004   11.5470053837925004   11.5470053837925004
   C    H 
     2     4
Selective dynamics
Direct
  0.3557399301180512  0.5523271068523090  0.5440928527828232   T   T   T
  0.4014080563472956  0.5358248403083882  0.5897738950425698   T   T   T
  0.3464186193050966  0.6043558374180815  0.5302976927030074   T   T   T
  0.3257021645837253  0.5145750807957594  0.5184847211174562   T   T   T
  0.4314775997129187  0.5736374156584192  0.6152613493060026   T   T   T
  0.4106944691304793  0.4838273000373749  0.6037192852333025   T   T   T
 
  0.00000000E+00  0.00000000E+00  0.00000000E+00
  0.00000000E+00  0.00000000E+00  0.00000000E+00
  0.00000000E+00  0.00000000E+00  0.00000000E+00
  0.00000000E+00  0.00000000E+00  0.00000000E+00
  0.00000000E+00  0.00000000E+00  0.00000000E+00
  0.00000000E+00  0.00000000E+00  0.00000000E+00
