 O  H                                   
   1.00000000000000     
    20.0000000000000000    0.0000000000000000    0.0000000000000000
     0.0000000000000000   21.0000000000000000    0.0000000000000000
     0.0000000000000000    0.0000000000000000   22.0000000000000000
   O    H 
     1     2
Direct
  0.5000000008409632  0.4999999997321978  0.5135991091879767
  0.4999999995808482  0.5365417367490490  0.4864242068432587
  0.4999999995781885  0.4634582635187532  0.4864242066960396
 
  0.00000000E+00  0.00000000E+00  0.00000000E+00
  0.00000000E+00  0.00000000E+00  0.00000000E+00
  0.00000000E+00  0.00000000E+00  0.00000000E+00
